NAME : random8
COMMENT : A random euclidean tsp instance with 8 nodes sampled in the [0,1] x [0,1]
TYPE : TSP
DIMENSION : 8
EDGE_WEIGHT_TYPE : EUC_2D
NODE_COORD_SECTION
0.18673158201751217 0.776054011821027
0.7736400449591821 0.7954151909639499
0.45404622513453086 0.06882071191534478
0.13421748610464035 0.1134148511617552
0.565232558291629 0.1979773299590072
0.28138946724128167 0.5346247880959581
0.5085836682265473 0.4604043228192347
0.6982110072831436 0.7278335469812421
EOF
